row=6;
column=6;
Board=[|5,1,6,2,4,3|1,4,3,5,6,2|2,6,4,1,3,5|3,5,2,4,1,6|4,3,5,6,2,1|6,2,1,3,5,4|];
horizontal=[|1,0,1,0,1|0,1,0,0,1|0,1,1,0,-1|0,1,0,1,0|1,0,0,1,1|1,1,0,0,1|];
vertical=[|1,0,1,0,0,1|0,0,0,1,1,0|0,1,1,0,1,0|0,1,0,0,0,1|0,1,1,1,0,0|];
